Route #1: 57 94 64 105 69 17 2 77 67
Route #2: 96 29 72 34 11 99 74
Route #3: 49 21 85 54 13 40 31 63 82
Route #4: 104 1 53 87 60 51 100 45
Route #5: 5 101 103 28 93 97 43 76
Route #6: 83 48 8 36 91 88 58 14
Route #7: 7 75 84 9 12 15 44
Route #8: 62 26 90 24 102 92 52
Route #9: 22 33
Route #10: 66 46 71 79 37 27 19 78
Route #11: 86 18 41 10 16 20 56
Route #12: 35 73 32 3 23 42 30 89 59
Route #13: 55 98 4 70 6 81 50 39
Route #14: 68 95 38 65 80 61 47 25
Cost 26381
